(set-logic QF_SLIA)
(declare-fun var0 () String)
(assert (not (str.in_re var0 (re.++ ((_ re.loop 18 237) (re.++ (re.union (str.to_re "7") (re.union (str.to_re "4+5") (re.union (str.to_re "v") (str.to_re "RZ@")))) (re.++ (re.union (str.to_re ">") (re.union (str.to_re "P") (re.union (str.to_re "s") (str.to_re "W")))) (re.++ (re.union (str.to_re "g-") (re.union (str.to_re "X!") (re.union (str.to_re "cct") (str.to_re "cqX")))) (re.union (str.to_re "mn`") (re.union (str.to_re "(j^") (re.union (str.to_re "ng") (str.to_re "nT,")))))))) (re.++ ((_ re.loop 3 92) (re.++ (re.union (str.to_re "$4") (re.union (str.to_re "tNY") (re.union (str.to_re "z") (str.to_re "]fo")))) (re.++ (re.union (str.to_re "6b") (re.union (str.to_re "zJ") (re.union (str.to_re "]eM") (str.to_re "(L")))) (re.++ (re.union (str.to_re "8") (re.union (str.to_re "7") (re.union (str.to_re "_") (str.to_re "/E~")))) (re.union (str.to_re "e") (re.union (str.to_re "?pO") (re.union (str.to_re "z<}") (str.to_re "AFs")))))))) (re.++ ((_ re.loop 5 158) (re.++ (re.union (str.to_re "z)J") (re.union (str.to_re "$2`") (re.union (str.to_re "u") (str.to_re "[")))) (re.++ (re.union (str.to_re "#/6") (re.union (str.to_re ";;") (re.union (str.to_re "l") (str.to_re "q")))) (re.++ (re.union (str.to_re "?") (re.union (str.to_re "y9") (re.union (str.to_re "5%") (str.to_re "<")))) (re.union (str.to_re "H") (re.union (str.to_re ";") (re.union (str.to_re "z|N") (str.to_re "!")))))))) ((_ re.loop 7 187) (re.++ (re.union (str.to_re "S[;") (re.union (str.to_re "sN") (re.union (str.to_re "Hy") (str.to_re "@3U")))) (re.++ (re.union (str.to_re "Ufk") (re.union (str.to_re "G4M") (re.union (str.to_re "[50") (str.to_re "TE.")))) (re.++ (re.union (str.to_re "YG") (re.union (str.to_re "/") (re.union (str.to_re "%") (str.to_re "MwT")))) (re.union (str.to_re "}}") (re.union (str.to_re "A.") (re.union (str.to_re ",Q") (str.to_re "@"))))))))))))))
(assert (not (str.in_re var0 (re.++ ((_ re.loop 13 537) (re.++ (re.union (str.to_re ",{y") (re.union (str.to_re "}y") (re.union (str.to_re "B2") (str.to_re "#a")))) (re.++ (re.union (str.to_re "@") (re.union (str.to_re "P") (re.union (str.to_re "4") (str.to_re "#~l")))) (re.++ (re.union (str.to_re "r!") (re.union (str.to_re "N") (re.union (str.to_re "yx") (str.to_re "m._")))) (re.union (str.to_re "i]") (re.union (str.to_re "F") (re.union (str.to_re "'4{") (str.to_re "&")))))))) (re.++ ((_ re.loop 5 762) (re.++ (re.union (str.to_re "&)2") (re.union (str.to_re "8r") (re.union (str.to_re "Jiv") (str.to_re "?")))) (re.++ (re.union (str.to_re "Vi\u0022") (re.union (str.to_re "c") (re.union (str.to_re "&") (str.to_re "+")))) (re.++ (re.union (str.to_re ":6") (re.union (str.to_re "H") (re.union (str.to_re "C=") (str.to_re "8`>")))) (re.union (str.to_re "fg") (re.union (str.to_re "wZ)") (re.union (str.to_re "os") (str.to_re ",")))))))) (re.++ ((_ re.loop 20 549) (re.++ (re.union (str.to_re "sR") (re.union (str.to_re "Oc") (re.union (str.to_re "8*") (str.to_re "yI1")))) (re.++ (re.union (str.to_re "Kg") (re.union (str.to_re "HJV") (re.union (str.to_re "uK") (str.to_re "}")))) (re.++ (re.union (str.to_re "=") (re.union (str.to_re "TWr") (re.union (str.to_re "e") (str.to_re "e")))) (re.union (str.to_re "ge*") (re.union (str.to_re "yD") (re.union (str.to_re "kX\u0022") (str.to_re "Y\u0022\\")))))))) ((_ re.loop 17 488) (re.++ (re.union (str.to_re "E") (re.union (str.to_re "1") (re.union (str.to_re "1P^") (str.to_re "i`g")))) (re.++ (re.union (str.to_re "k8X") (re.union (str.to_re "+Aw") (re.union (str.to_re "b@") (str.to_re "~Y")))) (re.++ (re.union (str.to_re "3") (re.union (str.to_re "j_a") (re.union (str.to_re "L%r") (str.to_re "/")))) (re.union (str.to_re "|$") (re.union (str.to_re "gv") (re.union (str.to_re "W") (str.to_re "c+["))))))))))))))
(assert (not (str.in_re var0 (re.++ (re.* re.allchar) (re.++ (re.union (str.to_re "<") (re.union (str.to_re ">") (re.union (str.to_re "'") (re.union (str.to_re "\u0022") (str.to_re "&"))))) (re.* re.allchar))))))
(assert (<= 50 (str.len var0)))
(check-sat)
(get-model)
